words_train/words_612_SAT.qaiger
aag 112 24 0 1 88
34
6
40
24
32
26
30
28
36
20
46
12
2
44
10
14
38
8
22
4
42
48
18
16
224
50 28 8
52 26 6
54 24 4
56 22 2
58 25 5
60 59 55
62 60 56
64 63 55
66 27 7
68 67 53
70 68 65
72 71 53
74 29 9
76 75 51
78 76 73
80 79 51
82 30 10
84 31 11
86 85 83
88 86 81
90 87 80
92 91 89
94 49 47
96 94 45
98 96 43
100 98 41
102 100 39
104 102 37
106 103 36
108 107 105
110 108 92
112 77 72
114 113 79
116 101 38
118 117 103
120 118 114
122 69 64
124 123 71
126 99 40
128 127 101
130 129 125
132 61 57
134 133 63
136 97 42
138 137 99
140 139 135
142 138 134
144 47 20
146 145 18
148 146 48
150 46 21
152 151 95
154 152 149
156 23 3
158 157 57
160 158 154
162 159 155
164 95 44
166 165 97
168 166 163
170 169 161
172 170 143
174 173 141
176 174 131
178 128 124
180 179 177
182 180 121
184 109 93
186 119 115
188 187 185
190 188 183
192 191 111
194 89 83
196 34 33
198 35 32
200 199 197
202 201 12
204 200 13
206 205 203
208 207 104
210 206 105
212 211 209
214 213 194
216 212 195
218 217 215
220 219 192
222 218 193
224 223 221
i0 2 y[0]
i1 2 z[2]
i2 2 y[3]
i3 1 x[3]
i4 1 x[7]
i5 1 x[4]
i6 1 x[6]
i7 1 x[5]
i8 2 y[1]
i9 1 x[1]
i10 2 y[6]
i11 2 z[5]
i12 2 z[0]
i13 2 y[5]
i14 2 z[4]
i15 2 z[6]
i16 2 y[2]
i17 2 z[3]
i18 1 x[2]
i19 2 z[1]
i20 2 y[4]
i21 2 y[7]
i22 1 x[0]
i23 2 z[7]
o0 bv[0]
c
simplified
  <
    add
      << 2
        2 z
      xor
        1 x
        1
    reverse
      2 y
