words_train/words_612_SAT.qaiger.qdimacs
p cnf 112 265
a 9 10 11 12 13 14 15 16 0
e 1 2 3 4 5 6 7 8 17 18 19 20 21 22 23 24 25 26 27 28 29 30 31 32 33 34 35 36 37 38 39 40 41 42 43 44 45 46 47 48 49 50 51 52 53 54 55 56 57 58 59 60 61 62 63 64 65 66 67 68 69 70 71 72 73 74 75 76 77 78 79 80 81 82 83 84 85 86 87 88 89 90 91 92 93 94 95 96 97 98 99 100 101 102 103 104 105 106 107 108 109 110 111 112 0
-14 -4 25 0
14 -25 0
4 -25 0
-13 -3 26 0
13 -26 0
3 -26 0
-12 -2 27 0
12 -27 0
2 -27 0
-11 -1 28 0
11 -28 0
1 -28 0
12 2 29 0
-12 -29 0
-2 -29 0
29 27 30 0
-29 -30 0
-27 -30 0
-30 -28 31 0
30 -31 0
28 -31 0
31 27 32 0
-31 -32 0
-27 -32 0
13 3 33 0
-13 -33 0
-3 -33 0
33 26 34 0
-33 -34 0
-26 -34 0
-34 32 35 0
34 -35 0
-32 -35 0
35 26 36 0
-35 -36 0
-26 -36 0
14 4 37 0
-14 -37 0
-4 -37 0
37 25 38 0
-37 -38 0
-25 -38 0
-38 36 39 0
38 -39 0
-36 -39 0
39 25 40 0
-39 -40 0
-25 -40 0
-15 -5 41 0
15 -41 0
5 -41 0
15 5 42 0
-15 -42 0
-5 -42 0
42 41 43 0
-42 -43 0
-41 -43 0
-43 40 44 0
43 -44 0
-40 -44 0
43 -40 45 0
-43 -45 0
40 -45 0
45 44 46 0
-45 -46 0
-44 -46 0
24 23 47 0
-24 -47 0
-23 -47 0
-47 22 48 0
47 -48 0
-22 -48 0
-48 21 49 0
48 -49 0
-21 -49 0
-49 20 50 0
49 -50 0
-20 -50 0
-50 19 51 0
50 -51 0
-19 -51 0
-51 18 52 0
51 -52 0
-18 -52 0
51 -18 53 0
-51 -53 0
18 -53 0
53 52 54 0
-53 -54 0
-52 -54 0
-54 -46 55 0
54 -55 0
46 -55 0
38 -36 56 0
-38 -56 0
36 -56 0
56 39 57 0
-56 -57 0
-39 -57 0
50 -19 58 0
-50 -58 0
19 -58 0
58 51 59 0
-58 -59 0
-51 -59 0
-59 -57 60 0
59 -60 0
57 -60 0
34 -32 61 0
-34 -61 0
32 -61 0
61 35 62 0
-61 -62 0
-35 -62 0
49 -20 63 0
-49 -63 0
20 -63 0
63 50 64 0
-63 -64 0
-50 -64 0
64 62 65 0
-64 -65 0
-62 -65 0
30 28 66 0
-30 -66 0
-28 -66 0
66 31 67 0
-66 -67 0
-31 -67 0
48 -21 68 0
-48 -68 0
21 -68 0
68 49 69 0
-68 -69 0
-49 -69 0
69 67 70 0
-69 -70 0
-67 -70 0
-69 -67 71 0
69 -71 0
67 -71 0
23 -10 72 0
-23 -72 0
10 -72 0
72 -9 73 0
-72 -73 0
9 -73 0
-73 -24 74 0
73 -74 0
24 -74 0
-23 10 75 0
23 -75 0
-10 -75 0
75 47 76 0
-75 -76 0
-47 -76 0
-76 74 77 0
76 -77 0
-74 -77 0
11 1 78 0
-11 -78 0
-1 -78 0
78 28 79 0
-78 -79 0
-28 -79 0
-79 -77 80 0
79 -80 0
77 -80 0
79 77 81 0
-79 -81 0
-77 -81 0
47 -22 82 0
-47 -82 0
22 -82 0
82 48 83 0
-82 -83 0
-48 -83 0
-83 81 84 0
83 -84 0
-81 -84 0
84 80 85 0
-84 -85 0
-80 -85 0
-85 71 86 0
85 -86 0
-71 -86 0
86 70 87 0
-86 -87 0
-70 -87 0
-87 65 88 0
87 -88 0
-65 -88 0
-64 -62 89 0
64 -89 0
62 -89 0
89 88 90 0
-89 -90 0
-88 -90 0
-90 60 91 0
90 -91 0
-60 -91 0
54 46 92 0
-54 -92 0
-46 -92 0
59 57 93 0
-59 -93 0
-57 -93 0
93 92 94 0
-93 -94 0
-92 -94 0
-94 91 95 0
94 -95 0
-91 -95 0
95 55 96 0
-95 -96 0
-55 -96 0
44 41 97 0
-44 -97 0
-41 -97 0
-17 16 98 0
17 -98 0
-16 -98 0
17 -16 99 0
-17 -99 0
16 -99 0
99 98 100 0
-99 -100 0
-98 -100 0
100 -6 101 0
-100 -101 0
6 -101 0
-100 6 102 0
100 -102 0
-6 -102 0
102 101 103 0
-102 -103 0
-101 -103 0
103 -52 104 0
-103 -104 0
52 -104 0
-103 52 105 0
103 -105 0
-52 -105 0
105 104 106 0
-105 -106 0
-104 -106 0
106 -97 107 0
-106 -107 0
97 -107 0
-106 97 108 0
106 -108 0
-97 -108 0
108 107 109 0
-108 -109 0
-107 -109 0
109 -96 110 0
-109 -110 0
96 -110 0
-109 96 111 0
109 -111 0
-96 -111 0
111 110 112 0
-111 -112 0
-110 -112 0
112 0
